benchmarks_vrp/CMT3/fixed_c_size/CMT3_4.vrp
NAME: CMT3_4
TYPE: CVRP
COMMENT: 826.14 - Cluster Nr.4
DIMENSION: 8
CAPACITY: 200
EDGE_WEIGHT_TYPE: EUC_2D
NODE_COORD_TYPE: TWOD_COORDS
NODE_COORD_SECTION: 
5 63 65
6 49 58
8 57 68
3 55 60
4 49 73
1 62 77
2 35 35
7 45 65
DEPOT_SECTION: 
2
-1
DEMAND_SECTION: 
7 9
2 0
8 15
1 20
3 16
6 10
5 8
4 25
EOF
