benchmarks_vrp/CMT3/fixed_c_size/CMT3_4.tour
NAME: CMT3_4 solution
TYPE: TOUR
TOUR_SECTION:
2 6 3 5 1 8 4 7 -1
-1
EOF